p cnf 224 299
-1 2 36 39 41 42 43 45 46 49 51 94 118 119 121 135 146 164 197 198 199 200 204 -207 -209 -211 -212 -213 -214 -215 -216 -219 -220 -221 -222 -224 0 
-2 1 36 39 41 42 43 45 46 49 51 94 118 119 121 135 146 164 197 198 199 200 204 -207 -209 -211 -212 -213 -214 -215 -216 -219 -220 -221 -222 -224 0 
-3 50 115 205 -207 -209 -211 -212 -213 -214 -215 -216 -219 -220 -221 -222 -224 0 
-3 50 115 -4 22 70 73 85 151 179 187 205 -207 -209 -211 -212 -213 -214 -215 -216 -219 -220 -221 -222 -224 0 
-5 14 205 -207 -209 -211 -212 -213 -214 -215 -216 -219 -220 -221 -222 -224 0 
-6 10 169 -7 117 140 167 184 189 -8 -9 190 204 -207 -209 -211 -212 -213 -214 -215 -216 -219 -220 -221 -222 -224 0 
-10 6 169 206 -75 -104 -207 -209 -211 -212 -213 -214 -215 -216 -219 -220 -221 -222 -224 0 
-10 6 169 204 -207 -209 -211 -212 -213 -214 -215 -216 -219 -220 -221 -222 -224 0 
-11 53 59 113 126 139 -12 204 -207 -209 -211 -212 -213 -214 -215 -216 -219 -220 -221 -222 -224 0 
-13 128 204 -207 -209 -211 -212 -213 -214 -215 -216 -219 -220 -221 -222 -224 0 
-14 5 -15 207 -209 -211 -212 -213 -214 -215 -216 -219 -220 -221 -222 -224 0 
-16 206 -75 -104 -207 -209 -211 -212 -213 -214 -215 -216 -219 -220 -221 -222 -224 0 
-13 128 207 -209 -211 -212 -213 -214 -215 -216 -219 -220 -221 -222 -224 0 
-17 63 106 177 208 -207 -209 -211 -212 -213 -214 -215 -216 -219 -220 -221 -222 -224 -72 -176 0 
-18 -15 206 -75 -104 -207 -209 -211 -212 -213 -214 -215 -216 -219 -220 -221 -222 -224 0 
-11 53 59 113 126 139 204 -207 -209 -211 -212 -213 -214 -215 -216 -219 -220 -221 -222 -224 0 
-19 205 -207 -209 -211 -212 -213 -214 -215 -216 -219 -220 -221 -222 -224 0 
-20 25 38 136 192 206 -75 -104 -207 -209 -211 -212 -213 -214 -215 -216 -219 -220 -221 -222 -224 0 
-21 -22 4 70 73 85 151 179 187 -23 56 61 91 178 -24 74 76 90 95 97 107 149 155 171 173 195 -25 20 38 136 192 206 -75 -104 -207 -209 -211 -212 -213 -214 -215 -216 -219 -220 -221 -222 -224 0 
-26 31 148 204 -207 -209 -211 -212 -213 -214 -215 -216 -219 -220 -221 -222 -224 0 
-27 -16 206 -75 -104 -207 -209 -211 -212 -213 -214 -215 -216 -219 -220 -221 -222 -224 0 
-28 109 130 154 166 206 -75 -104 -207 -209 -211 -212 -213 -214 -215 -216 -219 -220 -221 -222 -224 0 
-29 55 60 102 124 150 152 172 193 -30 204 -207 -209 -211 -212 -213 -214 -215 -216 -219 -220 -221 -222 -224 0 
-31 26 148 206 -75 -104 -207 -209 -211 -212 -213 -214 -215 -216 -219 -220 -221 -222 -224 0 
-32 99 206 -75 -104 -207 -209 -211 -212 -213 -214 -215 -216 -219 -220 -221 -222 -224 0 
-18 206 -75 -104 -207 -209 -211 -212 -213 -214 -215 -216 -219 -220 -221 -222 -224 0 
-33 108 156 206 -75 -104 -207 -209 -211 -212 -213 -214 -215 -216 -219 -220 -221 -222 -224 0 
-34 -6 10 169 209 -207 -211 -212 -213 -214 -215 -216 -219 -220 -221 -222 -224 0 
-35 37 40 47 145 163 165 174 181 204 -207 -209 -211 -212 -213 -214 -215 -216 -219 -220 -221 -222 -224 0 
-36 1 2 39 41 42 43 45 46 49 51 94 118 119 121 135 146 164 197 198 199 200 204 -207 -209 -211 -212 -213 -214 -215 -216 -219 -220 -221 -222 -224 0 
-37 35 40 47 145 163 165 174 181 204 -207 -209 -211 -212 -213 -214 -215 -216 -219 -220 -221 -222 -224 0 
-14 5 204 -207 -209 -211 -212 -213 -214 -215 -216 -219 -220 -221 -222 -224 0 
-38 20 25 136 192 204 -207 -209 -211 -212 -213 -214 -215 -216 -219 -220 -221 -222 -224 0 
-39 1 2 36 41 42 43 45 46 49 51 94 118 119 121 135 146 164 197 198 199 200 204 -207 -209 -211 -212 -213 -214 -215 -216 -219 -220 -221 -222 -224 0 
-40 35 37 47 145 163 165 174 181 204 -207 -209 -211 -212 -213 -214 -215 -216 -219 -220 -221 -222 -224 0 
-14 5 206 -75 -104 -207 -209 -211 -212 -213 -214 -215 -216 -219 -220 -221 -222 -224 0 
-41 1 2 36 39 42 43 45 46 49 51 94 118 119 121 135 146 164 197 198 199 200 204 -207 -209 -211 -212 -213 -214 -215 -216 -219 -220 -221 -222 -224 0 
-42 1 2 36 39 41 43 45 46 49 51 94 118 119 121 135 146 164 197 198 199 200 204 -207 -209 -211 -212 -213 -214 -215 -216 -219 -220 -221 -222 -224 0 
-43 1 2 36 39 41 42 45 46 49 51 94 118 119 121 135 146 164 197 198 199 200 204 -207 -209 -211 -212 -213 -214 -215 -216 -219 -220 -221 -222 -224 0 
-44 54 83 89 93 114 131 204 -207 -209 -211 -212 -213 -214 -215 -216 -219 -220 -221 -222 -224 0 
-45 1 2 36 39 41 42 43 46 49 51 94 118 119 121 135 146 164 197 198 199 200 204 -207 -209 -211 -212 -213 -214 -215 -216 -219 -220 -221 -222 -224 0 
-46 1 2 36 39 41 42 43 45 49 51 94 118 119 121 135 146 164 197 198 199 200 204 -207 -209 -211 -212 -213 -214 -215 -216 -219 -220 -221 -222 -224 0 
-47 35 37 40 145 163 165 174 181 206 -75 -104 -207 -209 -211 -212 -213 -214 -215 -216 -219 -220 -221 -222 -224 0 
-48 96 206 -75 -104 -207 -209 -211 -212 -213 -214 -215 -216 -219 -220 -221 -222 -224 0 
-49 1 2 36 39 41 42 43 45 46 51 94 118 119 121 135 146 164 197 198 199 200 204 -207 -209 -211 -212 -213 -214 -215 -216 -219 -220 -221 -222 -224 0 
-50 3 115 204 -207 -209 -211 -212 -213 -214 -215 -216 -219 -220 -221 -222 -224 0 
-51 1 2 36 39 41 42 43 45 46 49 94 118 119 121 135 146 164 197 198 199 200 204 -207 -209 -211 -212 -213 -214 -215 -216 -219 -220 -221 -222 -224 0 
-52 79 122 -53 11 59 113 126 139 -6 10 169 210 -217 -223 0 
-54 44 83 89 93 114 131 204 -207 -209 -211 -212 -213 -214 -215 -216 -219 -220 -221 -222 -224 0 
-15 206 -75 -104 -207 -209 -211 -212 -213 -214 -215 -216 -219 -220 -221 -222 -224 0 
-54 44 83 89 93 114 131 208 -207 -209 -211 -212 -213 -214 -215 -216 -219 -220 -221 -222 -224 -72 -176 0 
-55 29 60 102 124 150 152 172 193 208 -207 -209 -211 -212 -213 -214 -215 -216 -219 -220 -221 -222 -224 -72 -176 0 
-56 23 61 91 178 204 -207 -209 -211 -212 -213 -214 -215 -216 -219 -220 -221 -222 -224 0 
-57 82 92 129 132 133 144 204 -207 -209 -211 -212 -213 -214 -215 -216 -219 -220 -221 -222 -224 0 
-58 204 -207 -209 -211 -212 -213 -214 -215 -216 -219 -220 -221 -222 -224 0 
-59 11 53 113 126 139 205 -207 -209 -211 -212 -213 -214 -215 -216 -219 -220 -221 -222 -224 0 
-15 207 -209 -211 -212 -213 -214 -215 -216 -219 -220 -221 -222 -224 0 
-60 29 55 102 124 150 152 172 193 207 -209 -211 -212 -213 -214 -215 -216 -219 -220 -221 -222 -224 0 
-61 23 56 91 178 204 -207 -209 -211 -212 -213 -214 -215 -216 -219 -220 -221 -222 -224 0 
-14 5 -21 -62 65 201 206 -75 -104 -207 -209 -211 -212 -213 -214 -215 -216 -219 -220 -221 -222 -224 0 
-29 55 60 102 124 150 152 172 193 -63 17 106 177 206 -75 -104 -207 -209 -211 -212 -213 -214 -215 -216 -219 -220 -221 -222 -224 0 
-14 5 207 -209 -211 -212 -213 -214 -215 -216 -219 -220 -221 -222 -224 0 
-64 -15 207 -209 -211 -212 -213 -214 -215 -216 -219 -220 -221 -222 -224 0 
-18 -65 62 201 206 -75 -104 -207 -209 -211 -212 -213 -214 -215 -216 -219 -220 -221 -222 -224 0 
-29 55 60 102 124 150 152 172 193 -62 65 201 206 -75 -104 -207 -209 -211 -212 -213 -214 -215 -216 -219 -220 -221 -222 -224 0 
-66 120 188 205 -207 -209 -211 -212 -213 -214 -215 -216 -219 -220 -221 -222 -224 0 
-67 -6 10 169 -68 -69 183 196 202 211 -207 -209 -212 -213 -214 -215 -216 -219 -220 -221 -222 -224 0 
-65 62 201 206 -75 -104 -207 -209 -211 -212 -213 -214 -215 -216 -219 -220 -221 -222 -224 0 
-70 4 22 73 85 151 179 187 -71 207 -209 -211 -212 -213 -214 -215 -216 -219 -220 -221 -222 -224 0 
-72 176 -24 74 76 90 95 97 107 149 155 171 173 195 206 -75 -104 -207 -209 -211 -212 -213 -214 -215 -216 -219 -220 -221 -222 -224 0 
-73 4 22 70 85 151 179 187 205 -207 -209 -211 -212 -213 -214 -215 -216 -219 -220 -221 -222 -224 0 
-74 24 76 90 95 97 107 149 155 171 173 195 205 -207 -209 -211 -212 -213 -214 -215 -216 -219 -220 -221 -222 -224 0 
-75 104 204 -207 -209 -211 -212 -213 -214 -215 -216 -219 -220 -221 -222 -224 0 
-64 205 -207 -209 -211 -212 -213 -214 -215 -216 -219 -220 -221 -222 -224 0 
-76 24 74 90 95 97 107 149 155 171 173 195 211 -207 -209 -212 -213 -214 -215 -216 -219 -220 -221 -222 -224 0 
-27 205 -207 -209 -211 -212 -213 -214 -215 -216 -219 -220 -221 -222 -224 0 
-77 81 205 -207 -209 -211 -212 -213 -214 -215 -216 -219 -220 -221 -222 -224 0 
-78 153 205 -207 -209 -211 -212 -213 -214 -215 -216 -219 -220 -221 -222 -224 0 
-79 52 122 205 -207 -209 -211 -212 -213 -214 -215 -216 -219 -220 -221 -222 -224 0 
-80 194 205 -207 -209 -211 -212 -213 -214 -215 -216 -219 -220 -221 -222 -224 0 
-81 77 205 -207 -209 -211 -212 -213 -214 -215 -216 -219 -220 -221 -222 -224 0 
-82 57 92 129 132 133 144 204 -207 -209 -211 -212 -213 -214 -215 -216 -219 -220 -221 -222 -224 0 
-62 65 201 206 -75 -104 -207 -209 -211 -212 -213 -214 -215 -216 -219 -220 -221 -222 -224 0 
-83 44 54 89 93 114 131 205 -207 -209 -211 -212 -213 -214 -215 -216 -219 -220 -221 -222 -224 0 
-70 4 22 73 85 151 179 187 -71 204 -207 -209 -211 -212 -213 -214 -215 -216 -219 -220 -221 -222 -224 0 
-84 185 205 -207 -209 -211 -212 -213 -214 -215 -216 -219 -220 -221 -222 -224 0 
-85 4 22 70 73 151 179 187 211 -207 -209 -212 -213 -214 -215 -216 -219 -220 -221 -222 -224 0 
-50 3 115 207 -209 -211 -212 -213 -214 -215 -216 -219 -220 -221 -222 -224 0 
-86 205 -207 -209 -211 -212 -213 -214 -215 -216 -219 -220 -221 -222 -224 0 
-87 112 123 159 175 207 -209 -211 -212 -213 -214 -215 -216 -219 -220 -221 -222 -224 0 
-88 205 -207 -209 -211 -212 -213 -214 -215 -216 -219 -220 -221 -222 -224 0 
-89 44 54 83 93 114 131 205 -207 -209 -211 -212 -213 -214 -215 -216 -219 -220 -221 -222 -224 0 
-90 24 74 76 95 97 107 149 155 171 173 195 206 -75 -104 -207 -209 -211 -212 -213 -214 -215 -216 -219 -220 -221 -222 -224 0 
-91 23 56 61 178 205 -207 -209 -211 -212 -213 -214 -215 -216 -219 -220 -221 -222 -224 0 
-92 57 82 129 132 133 144 212 -207 -209 -211 -213 -214 -215 -216 -219 -220 -221 -222 -224 0 
-93 44 54 83 89 114 131 205 -207 -209 -211 -212 -213 -214 -215 -216 -219 -220 -221 -222 -224 0 
-94 1 2 36 39 41 42 43 45 46 49 51 118 119 121 135 146 164 197 198 199 200 213 -207 -209 -211 -212 -214 -215 -216 -219 -220 -221 -222 -224 0 
-95 24 74 76 90 97 107 149 155 171 173 195 204 -207 -209 -211 -212 -213 -214 -215 -216 -219 -220 -221 -222 -224 0 
-96 48 -95 24 74 76 90 97 107 149 155 171 173 195 -12 204 -207 -209 -211 -212 -213 -214 -215 -216 -219 -220 -221 -222 -224 0 
-97 24 74 76 90 95 107 149 155 171 173 195 207 -209 -211 -212 -213 -214 -215 -216 -219 -220 -221 -222 -224 0 
-98 204 -207 -209 -211 -212 -213 -214 -215 -216 -219 -220 -221 -222 -224 0 
-70 4 22 73 85 151 179 187 204 -207 -209 -211 -212 -213 -214 -215 -216 -219 -220 -221 -222 -224 0 
-97 24 74 76 90 95 107 149 155 171 173 195 204 -207 -209 -211 -212 -213 -214 -215 -216 -219 -220 -221 -222 -224 0 
-66 120 188 -99 32 -100 204 -207 -209 -211 -212 -213 -214 -215 -216 -219 -220 -221 -222 -224 0 
-101 206 -75 -104 -207 -209 -211 -212 -213 -214 -215 -216 -219 -220 -221 -222 -224 0 
-72 176 -102 29 55 60 124 150 152 172 193 206 -75 -104 -207 -209 -211 -212 -213 -214 -215 -216 -219 -220 -221 -222 -224 0 
-76 24 74 90 95 97 107 149 155 171 173 195 -6 10 169 211 -207 -209 -212 -213 -214 -215 -216 -219 -220 -221 -222 -224 0 
-96 48 205 -207 -209 -211 -212 -213 -214 -215 -216 -219 -220 -221 -222 -224 0 
-6 10 169 205 -207 -209 -211 -212 -213 -214 -215 -216 -219 -220 -221 -222 -224 0 
-50 3 115 -103 204 -207 -209 -211 -212 -213 -214 -215 -216 -219 -220 -221 -222 -224 0 
-71 204 -207 -209 -211 -212 -213 -214 -215 -216 -219 -220 -221 -222 -224 0 
-99 32 204 -207 -209 -211 -212 -213 -214 -215 -216 -219 -220 -221 -222 -224 0 
-104 75 204 -207 -209 -211 -212 -213 -214 -215 -216 -219 -220 -221 -222 -224 0 
-42 1 2 36 39 41 43 45 46 49 51 94 118 119 121 135 146 164 197 198 199 200 -21 -16 204 -207 -209 -211 -212 -213 -214 -215 -216 -219 -220 -221 -222 -224 0 
-105 191 -19 204 -207 -209 -211 -212 -213 -214 -215 -216 -219 -220 -221 -222 -224 0 
-6 10 169 214 -207 -209 -211 -212 -213 -215 -216 -219 -220 -221 -222 -224 0 
-63 17 106 177 206 -75 -104 -207 -209 -211 -212 -213 -214 -215 -216 -219 -220 -221 -222 -224 0 
-48 96 -106 17 63 177 211 -207 -209 -212 -213 -214 -215 -216 -219 -220 -221 -222 -224 0 
-107 24 74 76 90 95 97 149 155 171 173 195 204 -207 -209 -211 -212 -213 -214 -215 -216 -219 -220 -221 -222 -224 0 
-108 33 156 206 -75 -104 -207 -209 -211 -212 -213 -214 -215 -216 -219 -220 -221 -222 -224 0 
-109 28 130 154 166 204 -207 -209 -211 -212 -213 -214 -215 -216 -219 -220 -221 -222 -224 0 
-62 65 201 204 -207 -209 -211 -212 -213 -214 -215 -216 -219 -220 -221 -222 -224 0 
-110 160 204 -207 -209 -211 -212 -213 -214 -215 -216 -219 -220 -221 -222 -224 0 
-16 207 -209 -211 -212 -213 -214 -215 -216 -219 -220 -221 -222 -224 0 
-111 138 204 -207 -209 -211 -212 -213 -214 -215 -216 -219 -220 -221 -222 -224 0 
-6 10 169 -71 206 -75 -104 -207 -209 -211 -212 -213 -214 -215 -216 -219 -220 -221 -222 -224 0 
-112 87 123 159 175 205 -207 -209 -211 -212 -213 -214 -215 -216 -219 -220 -221 -222 -224 0 
-113 11 53 59 126 139 -10 6 169 204 -207 -209 -211 -212 -213 -214 -215 -216 -219 -220 -221 -222 -224 0 
-114 44 54 83 89 93 131 -19 206 -75 -104 -207 -209 -211 -212 -213 -214 -215 -216 -219 -220 -221 -222 -224 0 
-115 3 50 -116 204 -207 -209 -211 -212 -213 -214 -215 -216 -219 -220 -221 -222 -224 0 
-6 10 169 204 -207 -209 -211 -212 -213 -214 -215 -216 -219 -220 -221 -222 -224 0 
-14 5 -19 206 -75 -104 -207 -209 -211 -212 -213 -214 -215 -216 -219 -220 -221 -222 -224 0 
-114 44 54 83 89 93 131 204 -207 -209 -211 -212 -213 -214 -215 -216 -219 -220 -221 -222 -224 0 
-50 3 115 -117 7 140 167 184 189 204 -207 -209 -211 -212 -213 -214 -215 -216 -219 -220 -221 -222 -224 0 
-118 1 2 36 39 41 42 43 45 46 49 51 94 119 121 135 146 164 197 198 199 200 204 -207 -209 -211 -212 -213 -214 -215 -216 -219 -220 -221 -222 -224 0 
-119 1 2 36 39 41 42 43 45 46 49 51 94 118 121 135 146 164 197 198 199 200 204 -207 -209 -211 -212 -213 -214 -215 -216 -219 -220 -221 -222 -224 0 
-120 66 188 204 -207 -209 -211 -212 -213 -214 -215 -216 -219 -220 -221 -222 -224 0 
-121 1 2 36 39 41 42 43 45 46 49 51 94 118 119 135 146 164 197 198 199 200 204 -207 -209 -211 -212 -213 -214 -215 -216 -219 -220 -221 -222 -224 0 
-122 52 79 205 -207 -209 -211 -212 -213 -214 -215 -216 -219 -220 -221 -222 -224 0 
-123 87 112 159 175 205 -207 -209 -211 -212 -213 -214 -215 -216 -219 -220 -221 -222 -224 0 
-124 29 55 60 102 150 152 172 193 204 -207 -209 -211 -212 -213 -214 -215 -216 -219 -220 -221 -222 -224 0 
-125 142 -126 11 53 59 113 139 215 -207 -209 -211 -212 -213 -214 -216 -219 -220 -221 -222 -224 0 
-6 10 169 216 -207 -209 -211 -212 -213 -214 -215 -219 -220 -221 -222 -224 0 
-127 205 -207 -209 -211 -212 -213 -214 -215 -216 -219 -220 -221 -222 -224 0 
-128 13 205 -207 -209 -211 -212 -213 -214 -215 -216 -219 -220 -221 -222 -224 0 
-29 55 60 102 124 150 152 172 193 204 -207 -209 -211 -212 -213 -214 -215 -216 -219 -220 -221 -222 -224 0 
-32 99 207 -209 -211 -212 -213 -214 -215 -216 -219 -220 -221 -222 -224 0 
-70 4 22 73 85 151 179 187 207 -209 -211 -212 -213 -214 -215 -216 -219 -220 -221 -222 -224 0 
-129 57 82 92 132 133 144 -6 10 169 211 -207 -209 -212 -213 -214 -215 -216 -219 -220 -221 -222 -224 0 
-112 87 123 159 175 204 -207 -209 -211 -212 -213 -214 -215 -216 -219 -220 -221 -222 -224 0 
-130 28 109 154 166 208 -207 -209 -211 -212 -213 -214 -215 -216 -219 -220 -221 -222 -224 -72 -176 0 
-113 11 53 59 126 139 204 -207 -209 -211 -212 -213 -214 -215 -216 -219 -220 -221 -222 -224 0 
-125 142 215 -207 -209 -211 -212 -213 -214 -216 -219 -220 -221 -222 -224 0 
-60 29 55 102 124 150 152 172 193 -71 207 -209 -211 -212 -213 -214 -215 -216 -219 -220 -221 -222 -224 0 
-131 44 54 83 89 93 114 -71 207 -209 -211 -212 -213 -214 -215 -216 -219 -220 -221 -222 -224 0 
-132 57 82 92 129 133 144 204 -207 -209 -211 -212 -213 -214 -215 -216 -219 -220 -221 -222 -224 0 
-133 57 82 92 129 132 144 -6 10 169 216 -207 -209 -211 -212 -213 -214 -215 -219 -220 -221 -222 -224 0 
-64 -6 10 169 205 -207 -209 -211 -212 -213 -214 -215 -216 -219 -220 -221 -222 -224 0 
-134 -6 10 169 205 -207 -209 -211 -212 -213 -214 -215 -216 -219 -220 -221 -222 -224 0 
-81 77 -6 10 169 205 -207 -209 -211 -212 -213 -214 -215 -216 -219 -220 -221 -222 -224 0 
-135 1 2 36 39 41 42 43 45 46 49 51 94 118 119 121 146 164 197 198 199 200 204 -207 -209 -211 -212 -213 -214 -215 -216 -219 -220 -221 -222 -224 0 
-136 20 25 38 192 204 -207 -209 -211 -212 -213 -214 -215 -216 -219 -220 -221 -222 -224 0 
-137 206 -75 -104 -207 -209 -211 -212 -213 -214 -215 -216 -219 -220 -221 -222 -224 0 
-78 153 206 -75 -104 -207 -209 -211 -212 -213 -214 -215 -216 -219 -220 -221 -222 -224 0 
-78 153 204 -207 -209 -211 -212 -213 -214 -215 -216 -219 -220 -221 -222 -224 0 
-78 153 -19 205 -207 -209 -211 -212 -213 -214 -215 -216 -219 -220 -221 -222 -224 0 
-115 3 50 205 -207 -209 -211 -212 -213 -214 -215 -216 -219 -220 -221 -222 -224 0 
-138 111 206 -75 -104 -207 -209 -211 -212 -213 -214 -215 -216 -219 -220 -221 -222 -224 0 
-139 11 53 59 113 126 -112 87 123 159 175 -81 77 211 -207 -209 -212 -213 -214 -215 -216 -219 -220 -221 -222 -224 0 
-138 111 217 -210 -223 0 
-67 -6 10 169 -68 -140 7 117 167 184 189 -141 211 -207 -209 -212 -213 -214 -215 -216 -219 -220 -221 -222 -224 0 
-142 125 205 -207 -209 -211 -212 -213 -214 -215 -216 -219 -220 -221 -222 -224 0 
-24 74 76 90 95 97 107 149 155 171 173 195 -71 218 -1 -2 -36 -39 -41 -42 -43 -45 -46 -49 -51 -94 -118 -119 -121 -135 -146 -164 -197 -198 -199 -200 -207 -209 -211 -212 -213 -214 -215 -216 -219 -220 -221 -222 -224 0 
-143 206 -75 -104 -207 -209 -211 -212 -213 -214 -215 -216 -219 -220 -221 -222 -224 0 
-60 29 55 102 124 150 152 172 193 -70 4 22 73 85 151 179 187 -71 204 -207 -209 -211 -212 -213 -214 -215 -216 -219 -220 -221 -222 -224 0 
-72 176 206 -75 -104 -207 -209 -211 -212 -213 -214 -215 -216 -219 -220 -221 -222 -224 0 
-72 176 218 -1 -2 -36 -39 -41 -42 -43 -45 -46 -49 -51 -94 -118 -119 -121 -135 -146 -164 -197 -198 -199 -200 -207 -209 -211 -212 -213 -214 -215 -216 -219 -220 -221 -222 -224 0 
-144 57 82 92 129 132 133 -71 219 -207 -209 -211 -212 -213 -214 -215 -216 -220 -221 -222 -224 0 
-67 205 -207 -209 -211 -212 -213 -214 -215 -216 -219 -220 -221 -222 -224 0 
-145 35 37 40 47 163 165 174 181 204 -207 -209 -211 -212 -213 -214 -215 -216 -219 -220 -221 -222 -224 0 
-146 1 2 36 39 41 42 43 45 46 49 51 94 118 119 121 135 164 197 198 199 200 204 -207 -209 -211 -212 -213 -214 -215 -216 -219 -220 -221 -222 -224 0 
-106 17 63 177 -147 204 -207 -209 -211 -212 -213 -214 -215 -216 -219 -220 -221 -222 -224 0 
-6 10 169 -71 204 -207 -209 -211 -212 -213 -214 -215 -216 -219 -220 -221 -222 -224 0 
-64 -47 35 37 40 145 163 165 174 181 206 -75 -104 -207 -209 -211 -212 -213 -214 -215 -216 -219 -220 -221 -222 -224 0 
-148 26 31 207 -209 -211 -212 -213 -214 -215 -216 -219 -220 -221 -222 -224 0 
-149 24 74 76 90 95 97 107 155 171 173 195 207 -209 -211 -212 -213 -214 -215 -216 -219 -220 -221 -222 -224 0 
-84 185 -107 24 74 76 90 95 97 149 155 171 173 195 206 -75 -104 -207 -209 -211 -212 -213 -214 -215 -216 -219 -220 -221 -222 -224 0 
-15 -150 29 55 60 102 124 152 172 193 -151 4 22 70 73 85 179 187 206 -75 -104 -207 -209 -211 -212 -213 -214 -215 -216 -219 -220 -221 -222 -224 0 
-18 207 -209 -211 -212 -213 -214 -215 -216 -219 -220 -221 -222 -224 0 
-152 29 55 60 102 124 150 172 193 206 -75 -104 -207 -209 -211 -212 -213 -214 -215 -216 -219 -220 -221 -222 -224 0 
-153 78 -18 206 -75 -104 -207 -209 -211 -212 -213 -214 -215 -216 -219 -220 -221 -222 -224 0 
-14 5 -99 32 206 -75 -104 -207 -209 -211 -212 -213 -214 -215 -216 -219 -220 -221 -222 -224 0 
-64 -62 65 201 206 -75 -104 -207 -209 -211 -212 -213 -214 -215 -216 -219 -220 -221 -222 -224 0 
-27 -18 206 -75 -104 -207 -209 -211 -212 -213 -214 -215 -216 -219 -220 -221 -222 -224 0 
-71 -6 10 169 -116 206 -75 -104 -207 -209 -211 -212 -213 -214 -215 -216 -219 -220 -221 -222 -224 0 
-64 -13 128 204 -207 -209 -211 -212 -213 -214 -215 -216 -219 -220 -221 -222 -224 0 
-154 28 109 130 166 206 -75 -104 -207 -209 -211 -212 -213 -214 -215 -216 -219 -220 -221 -222 -224 0 
-155 24 74 76 90 95 97 107 149 171 173 195 206 -75 -104 -207 -209 -211 -212 -213 -214 -215 -216 -219 -220 -221 -222 -224 0 
-27 -13 128 204 -207 -209 -211 -212 -213 -214 -215 -216 -219 -220 -221 -222 -224 0 
-64 -156 33 108 206 -75 -104 -207 -209 -211 -212 -213 -214 -215 -216 -219 -220 -221 -222 -224 0 
-157 -158 206 -75 -104 -207 -209 -211 -212 -213 -214 -215 -216 -219 -220 -221 -222 -224 0 
-159 87 112 123 175 -60 29 55 102 124 150 152 172 193 204 -207 -209 -211 -212 -213 -214 -215 -216 -219 -220 -221 -222 -224 0 
-62 65 201 -15 206 -75 -104 -207 -209 -211 -212 -213 -214 -215 -216 -219 -220 -221 -222 -224 0 
-160 110 204 -207 -209 -211 -212 -213 -214 -215 -216 -219 -220 -221 -222 -224 0 
-27 -14 5 207 -209 -211 -212 -213 -214 -215 -216 -219 -220 -221 -222 -224 0 
-16 -14 5 206 -75 -104 -207 -209 -211 -212 -213 -214 -215 -216 -219 -220 -221 -222 -224 0 
-19 206 -75 -104 -207 -209 -211 -212 -213 -214 -215 -216 -219 -220 -221 -222 -224 0 
-161 182 203 207 -209 -211 -212 -213 -214 -215 -216 -219 -220 -221 -222 -224 0 
-153 78 -93 44 54 83 89 114 131 205 -207 -209 -211 -212 -213 -214 -215 -216 -219 -220 -221 -222 -224 0 
-162 206 -75 -104 -207 -209 -211 -212 -213 -214 -215 -216 -219 -220 -221 -222 -224 0 
-115 3 50 -163 35 37 40 47 145 165 174 181 205 -207 -209 -211 -212 -213 -214 -215 -216 -219 -220 -221 -222 -224 0 
-66 120 188 -164 1 2 36 39 41 42 43 45 46 49 51 94 118 119 121 135 146 197 198 199 200 205 -207 -209 -211 -212 -213 -214 -215 -216 -219 -220 -221 -222 -224 0 
-6 10 169 211 -207 -209 -212 -213 -214 -215 -216 -219 -220 -221 -222 -224 0 
-165 35 37 40 47 145 163 174 181 205 -207 -209 -211 -212 -213 -214 -215 -216 -219 -220 -221 -222 -224 0 
-166 28 109 130 154 204 -207 -209 -211 -212 -213 -214 -215 -216 -219 -220 -221 -222 -224 0 
-66 120 188 -161 182 203 204 -207 -209 -211 -212 -213 -214 -215 -216 -219 -220 -221 -222 -224 0 
-14 5 -19 204 -207 -209 -211 -212 -213 -214 -215 -216 -219 -220 -221 -222 -224 0 
-5 14 -6 10 169 -167 7 117 140 184 189 204 -207 -209 -211 -212 -213 -214 -215 -216 -219 -220 -221 -222 -224 0 
-66 120 188 -6 10 169 -168 204 -207 -209 -211 -212 -213 -214 -215 -216 -219 -220 -221 -222 -224 0 
-14 5 -153 78 -16 -19 204 -207 -209 -211 -212 -213 -214 -215 -216 -219 -220 -221 -222 -224 0 
-15 -71 -169 6 10 206 -75 -104 -207 -209 -211 -212 -213 -214 -215 -216 -219 -220 -221 -222 -224 0 
-134 205 -207 -209 -211 -212 -213 -214 -215 -216 -219 -220 -221 -222 -224 0 
-99 32 205 -207 -209 -211 -212 -213 -214 -215 -216 -219 -220 -221 -222 -224 0 
-131 44 54 83 89 93 114 -71 204 -207 -209 -211 -212 -213 -214 -215 -216 -219 -220 -221 -222 -224 0 
-2 1 36 39 41 42 43 45 46 49 51 94 118 119 121 135 146 164 197 198 199 200 207 -209 -211 -212 -213 -214 -215 -216 -219 -220 -221 -222 -224 0 
-170 206 -75 -104 -207 -209 -211 -212 -213 -214 -215 -216 -219 -220 -221 -222 -224 0 
-171 24 74 76 90 95 97 107 149 155 173 195 206 -75 -104 -207 -209 -211 -212 -213 -214 -215 -216 -219 -220 -221 -222 -224 0 
-172 29 55 60 102 124 150 152 193 205 -207 -209 -211 -212 -213 -214 -215 -216 -219 -220 -221 -222 -224 0 
-173 24 74 76 90 95 97 107 149 155 171 195 -125 142 215 -207 -209 -211 -212 -213 -214 -216 -219 -220 -221 -222 -224 0 
-12 204 -207 -209 -211 -212 -213 -214 -215 -216 -219 -220 -221 -222 -224 0 
-174 35 37 40 47 145 163 165 181 204 -207 -209 -211 -212 -213 -214 -215 -216 -219 -220 -221 -222 -224 0 
-175 87 112 123 159 218 -1 -2 -36 -39 -41 -42 -43 -45 -46 -49 -51 -94 -118 -119 -121 -135 -146 -164 -197 -198 -199 -200 -207 -209 -211 -212 -213 -214 -215 -216 -219 -220 -221 -222 -224 0 
-14 5 -71 206 -75 -104 -207 -209 -211 -212 -213 -214 -215 -216 -219 -220 -221 -222 -224 0 
-176 72 207 -209 -211 -212 -213 -214 -215 -216 -219 -220 -221 -222 -224 0 
-176 72 204 -207 -209 -211 -212 -213 -214 -215 -216 -219 -220 -221 -222 -224 0 
-71 207 -209 -211 -212 -213 -214 -215 -216 -219 -220 -221 -222 -224 0 
-177 17 63 106 -71 204 -207 -209 -211 -212 -213 -214 -215 -216 -219 -220 -221 -222 -224 0 
-18 -139 11 53 59 113 126 -14 5 -178 23 56 61 91 206 -75 -104 -207 -209 -211 -212 -213 -214 -215 -216 -219 -220 -221 -222 -224 0 
-78 153 -64 -13 128 204 -207 -209 -211 -212 -213 -214 -215 -216 -219 -220 -221 -222 -224 0 
-96 48 -13 128 204 -207 -209 -211 -212 -213 -214 -215 -216 -219 -220 -221 -222 -224 0 
-14 5 -154 28 109 130 166 206 -75 -104 -207 -209 -211 -212 -213 -214 -215 -216 -219 -220 -221 -222 -224 0 
-15 -14 5 207 -209 -211 -212 -213 -214 -215 -216 -219 -220 -221 -222 -224 0 
-27 -63 17 106 177 206 -75 -104 -207 -209 -211 -212 -213 -214 -215 -216 -219 -220 -221 -222 -224 0 
-16 -15 -179 4 22 70 73 85 151 187 206 -75 -104 -207 -209 -211 -212 -213 -214 -215 -216 -219 -220 -221 -222 -224 0 
-16 -15 -96 48 206 -75 -104 -207 -209 -211 -212 -213 -214 -215 -216 -219 -220 -221 -222 -224 0 
-180 205 -207 -209 -211 -212 -213 -214 -215 -216 -219 -220 -221 -222 -224 0 
-181 35 37 40 47 145 163 165 174 205 -207 -209 -211 -212 -213 -214 -215 -216 -219 -220 -221 -222 -224 0 
-6 10 169 206 -75 -104 -207 -209 -211 -212 -213 -214 -215 -216 -219 -220 -221 -222 -224 0 
-6 10 169 207 -209 -211 -212 -213 -214 -215 -216 -219 -220 -221 -222 -224 0 
-66 120 188 -182 161 203 206 -75 -104 -207 -209 -211 -212 -213 -214 -215 -216 -219 -220 -221 -222 -224 0 
-78 153 -182 161 203 204 -207 -209 -211 -212 -213 -214 -215 -216 -219 -220 -221 -222 -224 0 
-71 -6 10 169 220 -207 -209 -211 -212 -213 -214 -215 -216 -219 -221 -222 -224 0 
-169 6 10 -183 69 196 202 204 -207 -209 -211 -212 -213 -214 -215 -216 -219 -220 -221 -222 -224 0 
-6 10 169 -71 -184 7 117 140 167 189 221 -207 -209 -211 -212 -213 -214 -215 -216 -219 -220 -222 -224 0 
-71 -116 -6 10 169 206 -75 -104 -207 -209 -211 -212 -213 -214 -215 -216 -219 -220 -221 -222 -224 0 
-64 -77 81 207 -209 -211 -212 -213 -214 -215 -216 -219 -220 -221 -222 -224 0 
-96 48 -185 84 204 -207 -209 -211 -212 -213 -214 -215 -216 -219 -220 -221 -222 -224 0 
-186 -87 112 123 159 175 204 -207 -209 -211 -212 -213 -214 -215 -216 -219 -220 -221 -222 -224 0 
-186 -87 112 123 159 175 207 -209 -211 -212 -213 -214 -215 -216 -219 -220 -221 -222 -224 0 
-16 -14 5 -153 78 206 -75 -104 -207 -209 -211 -212 -213 -214 -215 -216 -219 -220 -221 -222 -224 0 
-18 -15 -153 78 206 -75 -104 -207 -209 -211 -212 -213 -214 -215 -216 -219 -220 -221 -222 -224 0 
-14 5 -84 185 -134 -15 207 -209 -211 -212 -213 -214 -215 -216 -219 -220 -221 -222 -224 0 
-48 96 -187 4 22 70 73 85 151 179 -19 205 -207 -209 -211 -212 -213 -214 -215 -216 -219 -220 -221 -222 -224 0 
-188 66 120 -153 78 -19 205 -207 -209 -211 -212 -213 -214 -215 -216 -219 -220 -221 -222 -224 0 
-19 215 -207 -209 -211 -212 -213 -214 -216 -219 -220 -221 -222 -224 0 
-6 10 169 -189 7 117 140 167 184 -190 9 204 -207 -209 -211 -212 -213 -214 -215 -216 -219 -220 -221 -222 -224 0 
-27 -19 205 -207 -209 -211 -212 -213 -214 -215 -216 -219 -220 -221 -222 -224 0 
-181 35 37 40 47 145 163 165 174 207 -209 -211 -212 -213 -214 -215 -216 -219 -220 -221 -222 -224 0 
-191 105 222 -207 -209 -211 -212 -213 -214 -215 -216 -219 -220 -221 -224 0 
-12 207 -209 -211 -212 -213 -214 -215 -216 -219 -220 -221 -222 -224 0 
-192 20 25 38 136 204 -207 -209 -211 -212 -213 -214 -215 -216 -219 -220 -221 -222 -224 0 
-112 87 123 159 175 -71 204 -207 -209 -211 -212 -213 -214 -215 -216 -219 -220 -221 -222 -224 0 
-112 87 123 159 175 -71 207 -209 -211 -212 -213 -214 -215 -216 -219 -220 -221 -222 -224 0 
-45 1 2 36 39 41 42 43 46 49 51 94 118 119 121 135 146 164 197 198 199 200 207 -209 -211 -212 -213 -214 -215 -216 -219 -220 -221 -222 -224 0 
-60 29 55 102 124 150 152 172 193 -71 204 -207 -209 -211 -212 -213 -214 -215 -216 -219 -220 -221 -222 -224 0 
-106 17 63 177 205 -207 -209 -211 -212 -213 -214 -215 -216 -219 -220 -221 -222 -224 0 
-101 207 -209 -211 -212 -213 -214 -215 -216 -219 -220 -221 -222 -224 0 
-193 29 55 60 102 124 150 152 172 205 -207 -209 -211 -212 -213 -214 -215 -216 -219 -220 -221 -222 -224 0 
-194 80 205 -207 -209 -211 -212 -213 -214 -215 -216 -219 -220 -221 -222 -224 0 
-60 29 55 102 124 150 152 172 193 204 -207 -209 -211 -212 -213 -214 -215 -216 -219 -220 -221 -222 -224 0 
-38 20 25 136 192 207 -209 -211 -212 -213 -214 -215 -216 -219 -220 -221 -222 -224 0 
-115 3 50 -103 204 -207 -209 -211 -212 -213 -214 -215 -216 -219 -220 -221 -222 -224 0 
-6 10 169 223 -210 -217 0 
-63 17 106 177 -3 50 115 -19 204 -207 -209 -211 -212 -213 -214 -215 -216 -219 -220 -221 -222 -224 0 
-195 24 74 76 90 95 97 107 149 155 171 173 -6 10 169 209 -207 -211 -212 -213 -214 -215 -216 -219 -220 -221 -222 -224 0 
-70 4 22 73 85 151 179 187 -10 6 169 204 -207 -209 -211 -212 -213 -214 -215 -216 -219 -220 -221 -222 -224 0 
-6 10 169 -103 206 -75 -104 -207 -209 -211 -212 -213 -214 -215 -216 -219 -220 -221 -222 -224 0 
-16 -19 204 -207 -209 -211 -212 -213 -214 -215 -216 -219 -220 -221 -222 -224 0 
-50 3 115 -19 -196 69 183 202 204 -207 -209 -211 -212 -213 -214 -215 -216 -219 -220 -221 -222 -224 0 
-197 1 2 36 39 41 42 43 45 46 49 51 94 118 119 121 135 146 164 198 199 200 205 -207 -209 -211 -212 -213 -214 -215 -216 -219 -220 -221 -222 -224 0 
-198 1 2 36 39 41 42 43 45 46 49 51 94 118 119 121 135 146 164 197 199 200 205 -207 -209 -211 -212 -213 -214 -215 -216 -219 -220 -221 -222 -224 0 
-199 1 2 36 39 41 42 43 45 46 49 51 94 118 119 121 135 146 164 197 198 200 205 -207 -209 -211 -212 -213 -214 -215 -216 -219 -220 -221 -222 -224 0 
-200 1 2 36 39 41 42 43 45 46 49 51 94 118 119 121 135 146 164 197 198 199 205 -207 -209 -211 -212 -213 -214 -215 -216 -219 -220 -221 -222 -224 0 
-153 78 205 -207 -209 -211 -212 -213 -214 -215 -216 -219 -220 -221 -222 -224 0 
-201 62 65 205 -207 -209 -211 -212 -213 -214 -215 -216 -219 -220 -221 -222 -224 0 
-6 10 169 -19 -202 69 183 196 224 -207 -209 -211 -212 -213 -214 -215 -216 -219 -220 -221 -222 0 
-84 185 -16 206 -75 -104 -207 -209 -211 -212 -213 -214 -215 -216 -219 -220 -221 -222 -224 0 
-203 161 182 204 -207 -209 -211 -212 -213 -214 -215 -216 -219 -220 -221 -222 -224 0 
-153 78 -161 182 203 206 -75 -104 -207 -209 -211 -212 -213 -214 -215 -216 -219 -220 -221 -222 -224 0 
